
Gurobi 10.0.1 (linux64) logging started Tue Sep 12 17:30:32 2023

Set parameter LogFile to value "./log/chr18a/chr18a.log"
Set parameter TimeLimit to value 180
Gurobi Optimizer version 10.0.1 build v10.0.1rc0 (linux64)

CPU model: 12th Gen Intel(R) Core(TM) i5-12600KF, instruction set [SSE2|AVX|AVX2]
Thread count: 8 physical cores, 16 logical processors, using up to 16 threads

Optimize a model with 36 rows, 324 columns and 648 nonzeros
Model fingerprint: 0xd565704b
Model has 5202 quadratic objective terms
Variable types: 0 continuous, 324 integer (324 binary)
Coefficient statistics:
  Matrix range     [1e+00, 1e+00]
  Objective range  [0e+00, 0e+00]
  QObjective range [4e+00, 4e+04]
  Bounds range     [1e+00, 1e+00]
  RHS range        [1e+00, 1e+00]
Found heuristic solution: objective 73612.000000
Presolve time: 0.02s
Presolved: 180 rows, 468 columns, 6138 nonzeros
Variable types: 0 continuous, 468 integer (324 binary)

Root relaxation: objective 0.000000e+00, 76 iterations, 0.00 seconds (0.00 work units)

    Nodes    |    Current Node    |     Objective Bounds      |     Work
 Expl Unexpl |  Obj  Depth IntInf | Incumbent    BestBd   Gap | It/Node Time

     0     0    0.00000    0   24 73612.0000    0.00000   100%     -    0s
H    0     0                    62486.000000    0.00000   100%     -    0s
H    0     0                    55356.000000    0.00000   100%     -    0s
     0     0    0.00000    0   40 55356.0000    0.00000   100%     -    0s
H    0     0                    38558.000000    0.00000   100%     -    0s
H    0     0                    35666.000000    0.00000   100%     -    0s
H    0     0                    35622.000000    0.00000   100%     -    0s
H    0     0                    34588.000000    0.00000   100%     -    0s
     0     0    0.00000    0   25 34588.0000    0.00000   100%     -    0s
H    0     0                    31272.000000    0.00000   100%     -    0s
     0     0  430.00000    0   23 31272.0000  430.00000  98.6%     -    0s
     0     0  430.00000    0   25 31272.0000  430.00000  98.6%     -    0s
     0     0  430.00000    0   22 31272.0000  430.00000  98.6%     -    0s
     0     0  430.00000    0   22 31272.0000  430.00000  98.6%     -    0s
H    0     0                    30178.000000  430.00000  98.6%     -    0s
     0     2  430.00000    0   21 30178.0000  430.00000  98.6%     -    0s
H   21    24                    28942.000000  430.00000  98.5%  35.3    0s
H   33    40                    27740.000000  430.00000  98.4%  29.2    0s
H   83    96                    26866.000000  430.00000  98.4%  19.3    0s
H   91    96                    26416.000000  430.00000  98.4%  18.1    0s
H  119   142                    24882.000000  430.00000  98.3%  16.7    0s
H  126   142                    23228.000000  430.00000  98.1%  16.6    0s
H  190   212                    22164.000000  430.00000  98.1%  13.5    0s
H  210   212                    21924.000000  430.00000  98.0%  13.2    0s
H  303   342                    21824.000000  430.00000  98.0%  12.7    0s
H  355   342                    20624.000000  430.00000  97.9%  12.9    0s
H  386   421                    19742.000000  430.00000  97.8%  12.6    0s
H 1628  1275                    19572.000000  430.00000  97.8%  11.2    0s
H 1676  1254                    18834.000000  430.00000  97.7%  11.4    0s
H 1685  1194                    17360.000000  430.00000  97.5%  11.4    0s
H 1691  1137                    17330.000000  430.00000  97.5%  11.5    0s
H 1702  1081                    17250.000000  430.00000  97.5%  11.5    0s
H 4429  1883                    16418.000000  430.00000  97.4%  13.8    0s
H12555  6858                    15952.000000  430.00000  97.3%  13.0    0s
H14023  7478                    14564.000000  430.00000  97.0%  13.2    1s
H27789 13958                    14528.000000  581.20183  96.0%  14.3    1s
*30840 15653              86    14474.000000  686.00000  95.3%  14.3    1s
H40903 18878                    14022.000000  969.78723  93.1%  14.3    2s
H40943 17966                    13658.000000  969.78723  92.9%  14.4    2s
H40989 17079                    13272.000000  969.78723  92.7%  14.5    2s
H40994 16226                    12930.000000  969.78723  92.5%  14.5    2s
H41037 15436                    12776.000000  969.78723  92.4%  14.5    2s
H41051 14663                    12730.000000  969.78723  92.4%  14.5    2s
H41500 14082                    12550.000000  969.78723  92.3%  14.8    3s
H41509 13385                    11948.000000  969.78723  91.9%  14.8    3s
H42259 12802                    11608.000000  969.78723  91.6%  15.3    3s
 56276 15551 infeasible   71      11608.0000 2244.00000  80.7%  19.5    5s
*172551 33239              50    11480.000000 6882.77645  40.0%  21.7    9s
 174542 33422     cutoff   49      11480.0000 6962.00000  39.4%  21.6   10s
*219329 29151              51    11118.000000 8222.86164  26.0%  21.0   11s
*243248 21608              58    11098.000000 9099.13604  18.0%  20.5   12s

Cutting planes:
  Gomory: 8
  Implied bound: 33
  MIR: 6
  StrongCG: 1
  Flow cover: 26
  GUB cover: 1

Explored 281503 nodes (5304155 simplex iterations) in 12.86 seconds (17.78 work units)
Thread count was 16 (of 16 available processors)

Solution count 10: 11098 11118 11480 ... 13272

Optimal solution found (tolerance 1.00e-04)
Best objective 1.109800000000e+04, best bound 1.109800000000e+04, gap 0.0000%
